c File: data_files/evolved_graphs/g7309.col
c
c Auto generated graph
c
p edge 100 45
e 1 71
e 2 45
e 3 55
e 4 91
e 5 59
e 6 83
e 7 99
e 8 46
e 9 53
e 10 40
e 11 23
e 12 63
e 13 39
e 13 41
e 14 43
e 15 34
e 16 25
e 16 42
e 17 74
e 18 39
e 19 61
e 20 56
e 21 68
e 22 52
e 24 26
e 25 28
e 29 60
e 30 54
e 31 67
e 35 62
e 35 82
e 37 48
e 38 40
e 47 93
e 49 51
e 50 95
e 57 58
e 62 97
e 69 85
e 70 78
e 77 81
e 87 89
e 88 94
e 90 92
e 91 96
